(set-logic QF_BV)
(declare-fun _substvar_199_ () (_ BitVec 8))
(declare-fun _substvar_74_ () (_ BitVec 8))
(declare-fun _substvar_197_ () (_ BitVec 8))
(declare-fun _substvar_195_ () (_ BitVec 16))
(declare-fun _substvar_191_ () (_ BitVec 8))
(assert (let ( (?v_10 ((_ zero_extend 24) _substvar_74_)) (?v_7 ((_ zero_extend 24) _substvar_191_)) (?v_12 ((_ zero_extend 16) _substvar_195_))) (let ((?v_15 (bvadd ?v_12 (bvsub (_ bv4294967295 32) ?v_7)))) (let ((?v_18 (bvadd ?v_15 (bvsub (_ bv4294967295 32) ?v_10)))) (let ((?v_13 (bvadd ?v_18 (_ bv0 32))) (?v_14 ((_ zero_extend 24) _substvar_197_))) (let ((?v_16 (bvadd ?v_13 (bvsub (_ bv4294967295 32) ?v_14)))) (and true true true true (bvult ?v_13 (bvadd ?v_14 (_ bv1 32))) true true true true true true true true true true true true true true true true true true (= (bvadd ?v_16 (bvsub (_ bv4294967295 32) ((_ zero_extend 24) _substvar_199_))) (_ bv0 32)) true true true true true true)))))))
(check-sat)
(exit)
